
  12   12
  10   10   10   10   10   10   10   10   10   10   10   10

   0   0   0   0   0   0   0   0   0   0   0   0   0   5 2 3 4 6 11 
   6   1   1   1   0   0   0   0   0   1   0   1   0   3 10 9 5 
   1   0   0   9   0   1   0   0   0   5   1   0   0   3 10 8 5 
   7   6   0   0   0   6   1   0   0   0   0   0   0   3 9 8 7 
  10   0   5   0   0   0   0   0   1   0   0   0   0   1 7 
   5   0   0   0   0   0   0   1   0   0   9   0   3   1 8 
   6   0   0   0   0   0   0   9   0   0   0   0   2   1 12
   6   5   7   0   0   0   7   0   9   0   0   9   0   1 12
   2   0   7   0   0   0   6   0   5   9   0   0  10   1 12
   7   8   0   0   5   7   0   0   0   0   5   0   0   1 12
   8   0   0   0   0   6   6   0   0   0   0   0   0   1 12
   0   0   0   0   0   0   0   0   0   0   0   0   0   0 
